\ Model Master problem
\ LP format - for model browsing. Use MPS format to capture full model detail.
Minimize
  - 51.29624999999999 sa_0 + 28.5 sa_1 + 28.5 sa_2 - 25.575 sa_3
   - 25.575 sa_4 + 5.7 sa_5 - 30.77775 sa_6 + 28.5 sa_7 + 25.65 sa_8
   + 1.711124999999999 sa_9 + 28.5 sa_10 + 28.5 sa_11 - 30.77775 sa_12
   - 1.705 sa_13 - 51.29624999999999 sa_14 + 1.711124999999999 sa_15
   + 28.5 sa_16 - 6.795 sa_17 + 25.65 sa_18 + 28.5 sa_19
   - 51.29624999999999 sa_20 - 22.22775 sa_21 - 4.14 sa_22
   - 51.29624999999999 sa_23 - 25.575 sa_24 - 25.575 sa_25 - 20.46 sa_26
   + 25.65 sa_27 - 51.29624999999999 sa_28 - 51.29624999999999 sa_35
   - 51.29624999999999 sa_36 - 51.29624999999999 sa_37
   - 51.29624999999999 sa_38 - 51.29624999999999 sa_39
   - 51.29624999999999 sa_40 - 51.29624999999999 sa_41
   - 51.29624999999999 sa_42 - 51.29624999999999 sa_43
   - 51.29624999999999 sa_44 - 51.29624999999999 sa_45
   - 51.29624999999999 sa_46 - 51.29624999999999 sa_47
   - 51.29624999999999 sa_48 - 51.29624999999999 sa_49
   - 51.29624999999999 sa_50 - 51.29624999999999 sa_51
   - 51.29624999999999 sa_52 - 51.29624999999999 sa_53
   - 51.29624999999999 sa_54 - 51.29624999999999 sa_55
   - 51.29624999999999 sa_56 - 51.29624999999999 sa_57
   - 51.29624999999999 sa_58 - 51.29624999999999 sa_59
   - 51.29624999999999 sa_60 - 51.29624999999999 sa_61
   - 51.29624999999999 sa_62 - 51.29624999999999 sa_63
   - 51.29624999999999 sa_64 - 51.29624999999999 sa_65
   - 51.29624999999999 sa_66 - 51.29624999999999 sa_67
   - 51.29624999999999 sa_68 - 51.29624999999999 sa_69
   - 51.29624999999999 sa_70 - 51.29624999999999 sa_71
   - 51.29624999999999 sa_72 - 51.29624999999999 sa_73
   - 51.29624999999999 sa_74 - 51.29624999999999 sa_75
   - 51.29624999999999 sa_76 - 51.29624999999999 sa_77
   - 51.29624999999999 sa_78 - 51.29624999999999 sa_79
   - 51.29624999999999 sa_80 - 51.29624999999999 sa_81
   - 51.29624999999999 sa_82 - 51.29624999999999 sa_83
   - 51.29624999999999 sa_84 - 51.29624999999999 sa_85
   - 51.29624999999999 sa_86 - 51.29624999999999 sa_87
   - 51.29624999999999 sa_88 - 51.29624999999999 sa_89
   - 51.29624999999999 sa_90 - 51.29624999999999 sa_91
   - 51.29624999999999 sa_92 - 51.29624999999999 sa_93
   - 51.29624999999999 sa_94 - 51.29624999999999 sa_95
   - 51.29624999999999 sa_96 - 51.29624999999999 sa_97
   - 51.29624999999999 sa_98 - 51.29624999999999 sa_99
   - 51.29624999999999 sa_100 - 51.29624999999999 sa_101
   - 51.29624999999999 sa_102 - 51.29624999999999 sa_103
   - 51.29624999999999 sa_104 - 51.29624999999999 sa_105
   - 51.29624999999999 sa_106 - 51.29624999999999 sa_107
   - 51.29624999999999 sa_108 - 51.29624999999999 sa_109
   - 51.29624999999999 sa_110 - 51.29624999999999 sa_111
   - 51.29624999999999 sa_112 - 51.29624999999999 sa_113
   - 51.29624999999999 sa_114 - 51.29624999999999 sa_115
   - 51.29624999999999 sa_116 - 51.29624999999999 sa_117
   - 51.29624999999999 sa_118 - 51.29624999999999 sa_119
   - 51.29624999999999 sa_120 - 51.29624999999999 sa_121
   - 51.29624999999999 sa_122 - 51.29624999999999 sa_123
   - 51.29624999999999 sa_124 - 51.29624999999999 sa_125
   - 51.29624999999999 sa_126 - 51.29624999999999 sa_127
   - 51.29624999999999 sa_128 - 51.29624999999999 sa_129
   - 51.29624999999999 sa_130 - 51.29624999999999 sa_131
   - 51.29624999999999 sa_132 - 51.29624999999999 sa_133
   - 51.29624999999999 sa_134 - 51.29624999999999 sa_135
   - 51.29624999999999 sa_136
Subject To
 con_beta_0: 0.05 sa_0 + 0.05 sa_1 + 0.05 sa_2 + 0.05 sa_3 + 0.05 sa_4
   + 0.05 sa_5 + 0.05 sa_6 + 0.05 sa_7 + 0.05 sa_8 + 0.05 sa_9 + 0.05 sa_10
   + 0.05 sa_11 + 0.05 sa_12 + 0.05 sa_13 + 0.05 sa_14 + 0.05 sa_15
   + 0.05 sa_16 + 0.05 sa_17 + 0.05 sa_18 + 0.05 sa_19 + 0.05 sa_20
   + 0.05 sa_21 + 0.05 sa_22 + 0.05 sa_23 + 0.05 sa_24 + 0.05 sa_25
   + 0.05 sa_26 + 0.05 sa_27 + 0.05 sa_28 + 0.05 sa_29 + 0.05 sa_30
   + 0.05 sa_31 + 0.05 sa_32 + 0.05 sa_33 + 0.05 sa_35 + 0.05 sa_36
   + 0.05 sa_37 + 0.05 sa_38 + 0.05 sa_39 + 0.05 sa_40 + 0.05 sa_41
   + 0.05 sa_42 + 0.05 sa_43 + 0.05 sa_44 + 0.05 sa_45 + 0.05 sa_46
   + 0.05 sa_47 + 0.05 sa_48 + 0.05 sa_49 + 0.05 sa_50 + 0.05 sa_51
   + 0.05 sa_52 + 0.05 sa_53 + 0.05 sa_54 + 0.05 sa_55 + 0.05 sa_56
   + 0.05 sa_57 + 0.05 sa_58 + 0.05 sa_59 + 0.05 sa_60 + 0.05 sa_61
   + 0.05 sa_62 + 0.05 sa_63 + 0.05 sa_64 + 0.05 sa_65 + 0.05 sa_66
   + 0.05 sa_67 + 0.05 sa_68 + 0.05 sa_69 + 0.05 sa_70 + 0.05 sa_71
   + 0.05 sa_72 + 0.05 sa_73 + 0.05 sa_74 + 0.05 sa_75 + 0.05 sa_76
   + 0.05 sa_77 + 0.05 sa_78 + 0.05 sa_79 + 0.05 sa_80 + 0.05 sa_81
   + 0.05 sa_82 + 0.05 sa_83 + 0.05 sa_84 + 0.05 sa_85 + 0.05 sa_86
   + 0.05 sa_87 + 0.05 sa_88 + 0.05 sa_89 + 0.05 sa_90 + 0.05 sa_91
   + 0.05 sa_92 + 0.05 sa_93 + 0.05 sa_94 + 0.05 sa_95 + 0.05 sa_96
   + 0.05 sa_97 + 0.05 sa_98 + 0.05 sa_99 + 0.05 sa_100 + 0.05 sa_101
   + 0.05 sa_102 + 0.05 sa_103 + 0.05 sa_104 + 0.05 sa_105 + 0.05 sa_106
   + 0.05 sa_107 + 0.05 sa_108 + 0.05 sa_109 + 0.05 sa_110 + 0.05 sa_111
   + 0.05 sa_112 + 0.05 sa_113 + 0.05 sa_114 + 0.05 sa_115 + 0.05 sa_116
   + 0.05 sa_117 + 0.05 sa_118 + 0.05 sa_119 + 0.05 sa_120 + 0.05 sa_121
   + 0.05 sa_122 + 0.05 sa_123 + 0.05 sa_124 + 0.05 sa_125 + 0.05 sa_126
   + 0.05 sa_127 + 0.05 sa_128 + 0.05 sa_129 + 0.05 sa_130 + 0.05 sa_131
   + 0.05 sa_132 + 0.05 sa_133 + 0.05 sa_134 + 0.05 sa_135 + 0.05 sa_136
   = 1
 con_beta_ul_nco[PPE1]: 60 sa_0 + 60 sa_1 + 60 sa_2 + 60 sa_3 + 60 sa_4
   + 60 sa_5 + 60 sa_6 + 60 sa_7 + 60 sa_8 + 60 sa_9 + 60 sa_10 + 60 sa_11
   + 60 sa_12 + 60 sa_13 + 60 sa_14 + 60 sa_15 + 60 sa_16 + 60 sa_17
   + 60 sa_18 + 60 sa_19 + 60 sa_20 + 60 sa_21 + 60 sa_22 + 60 sa_23
   + 60 sa_24 + 60 sa_25 + 60 sa_26 + 60 sa_27 + 60 sa_28 + 60 sa_29
   + 60 sa_30 + 60 sa_31 + 60 sa_32 + 60 sa_33 + 60 sa_35 + 60 sa_36
   + 60 sa_37 + 60 sa_38 + 60 sa_39 + 60 sa_40 + 60 sa_41 + 60 sa_42
   + 60 sa_43 + 60 sa_44 + 60 sa_45 + 60 sa_46 + 60 sa_47 + 60 sa_48
   + 60 sa_49 + 60 sa_50 + 60 sa_51 + 60 sa_52 + 60 sa_53 + 60 sa_54
   + 60 sa_55 + 60 sa_56 + 60 sa_57 + 60 sa_58 + 60 sa_59 + 60 sa_60
   + 60 sa_61 + 60 sa_62 + 60 sa_63 + 60 sa_64 + 60 sa_65 + 60 sa_66
   + 60 sa_67 + 60 sa_68 + 60 sa_69 + 60 sa_70 + 60 sa_71 + 60 sa_72
   + 60 sa_73 + 60 sa_74 + 60 sa_75 + 60 sa_76 + 60 sa_77 + 60 sa_78
   + 60 sa_79 + 60 sa_80 + 60 sa_81 + 60 sa_82 + 60 sa_83 + 60 sa_84
   + 60 sa_85 + 60 sa_86 + 60 sa_87 + 60 sa_88 + 60 sa_89 + 60 sa_90
   + 60 sa_91 + 60 sa_92 + 60 sa_93 + 60 sa_94 + 60 sa_95 + 60 sa_96
   + 60 sa_97 + 60 sa_98 + 60 sa_99 + 60 sa_100 + 60 sa_101 + 60 sa_102
   + 60 sa_103 + 60 sa_104 + 60 sa_105 + 60 sa_106 + 60 sa_107 + 60 sa_108
   + 60 sa_109 + 60 sa_110 + 60 sa_111 + 60 sa_112 + 60 sa_113 + 60 sa_114
   + 60 sa_115 + 60 sa_116 + 60 sa_117 + 60 sa_118 + 60 sa_119 + 60 sa_120
   + 60 sa_121 + 60 sa_122 + 60 sa_123 + 60 sa_124 + 60 sa_125 + 60 sa_126
   + 60 sa_127 + 60 sa_128 + 60 sa_129 + 60 sa_130 + 60 sa_131 + 60 sa_132
   + 60 sa_133 + 60 sa_134 + 60 sa_135 + 60 sa_136 >= 0
 con_beta_pw_0dkc[0,C1,P1,CPU1]: - 8.55 sa_0 - 8.55 sa_1 - 8.55 sa_2
   - 8.55 sa_3 - 8.55 sa_4 - 8.55 sa_5 - 8.55 sa_6 + 21.45 sa_7 - 8.55 sa_8
   - 8.55 sa_9 - 8.55 sa_10 - 8.55 sa_11 - 8.55 sa_12 - 8.55 sa_13
   - 8.55 sa_14 - 8.55 sa_15 - 8.55 sa_16 - 8.55 sa_17 - 8.55 sa_18
   - 8.55 sa_19 - 8.55 sa_20 - 8.55 sa_21 - 8.55 sa_22 - 8.55 sa_23
   - 8.55 sa_24 - 8.55 sa_25 - 8.55 sa_26 - 8.55 sa_27 - 8.55 sa_28
   - 8.55 sa_29 - 8.55 sa_30 - 8.55 sa_31 - 8.55 sa_32 - 8.55 sa_33
   - 8.55 sa_35 - 8.55 sa_36 - 8.55 sa_37 - 8.55 sa_38 - 8.55 sa_39
   - 8.55 sa_40 - 8.55 sa_41 - 8.55 sa_42 - 8.55 sa_43 - 8.55 sa_44
   - 8.55 sa_45 - 8.55 sa_46 - 8.55 sa_47 - 8.55 sa_48 - 8.55 sa_49
   - 8.55 sa_50 - 8.55 sa_51 - 8.55 sa_52 - 8.55 sa_53 - 8.55 sa_54
   - 8.55 sa_55 - 8.55 sa_56 - 8.55 sa_57 - 8.55 sa_58 - 8.55 sa_59
   - 8.55 sa_60 - 8.55 sa_61 - 8.55 sa_62 - 8.55 sa_63 - 8.55 sa_64
   - 8.55 sa_65 - 8.55 sa_66 - 8.55 sa_67 - 8.55 sa_68 - 8.55 sa_69
   - 8.55 sa_70 - 8.55 sa_71 - 8.55 sa_72 - 8.55 sa_73 - 8.55 sa_74
   - 8.55 sa_75 - 8.55 sa_76 - 8.55 sa_77 - 8.55 sa_78 - 8.55 sa_79
   - 8.55 sa_80 - 8.55 sa_81 - 8.55 sa_82 - 8.55 sa_83 - 8.55 sa_84
   - 8.55 sa_85 - 8.55 sa_86 - 8.55 sa_87 - 8.55 sa_88 - 8.55 sa_89
   - 8.55 sa_90 - 8.55 sa_91 - 8.55 sa_92 - 8.55 sa_93 - 8.55 sa_94
   - 8.55 sa_95 - 8.55 sa_96 - 8.55 sa_97 - 8.55 sa_98 - 8.55 sa_99
   - 8.55 sa_100 - 8.55 sa_101 - 8.55 sa_102 - 8.55 sa_103 - 8.55 sa_104
   - 8.55 sa_105 - 8.55 sa_106 - 8.55 sa_107 - 8.55 sa_108 - 8.55 sa_109
   - 8.55 sa_110 - 8.55 sa_111 - 8.55 sa_112 - 8.55 sa_113 - 8.55 sa_114
   - 8.55 sa_115 - 8.55 sa_116 - 8.55 sa_117 - 8.55 sa_118 - 8.55 sa_119
   - 8.55 sa_120 - 8.55 sa_121 - 8.55 sa_122 - 8.55 sa_123 - 8.55 sa_124
   - 8.55 sa_125 - 8.55 sa_126 - 8.55 sa_127 - 8.55 sa_128 - 8.55 sa_129
   - 8.55 sa_130 - 8.55 sa_131 - 8.55 sa_132 - 8.55 sa_133 - 8.55 sa_134
   - 8.55 sa_135 - 8.55 sa_136 >= 10
 con_beta_pw_0dkc[0,C2,P1,CPU1]: >= 0
 con_beta_pw_1TLdkc[1,C1,P1,CPU1]: 6 sa_5 + 18 sa_8 + 18 sa_18 + 30 sa_19
   + 18 sa_27 >= 5
 con_beta_pw_1TLdkc[1,C2,P1,CPU1]: >= 0
 con_beta_pw_TLMdkc[2,C1,P1,CPU1]: 30 sa_2 + 18 sa_9 + 30 sa_10 + 30 sa_11
   >= 2.5
 con_beta_pw_TLMdkc[2,C2,P1,CPU1]: >= 0
 con_beta_pw_TLMdkc[3,C1,P1,CPU1]: 30 sa_1 >= 1.25
 con_beta_pw_TLMdkc[3,C2,P1,CPU1]: 9 sa_17 + 9 sa_18 + 9 sa_21 + 10 sa_22
   + 9 sa_27 >= 1.25
 con_beta_pw_Mdkc[4,C1,P1,CPU1]: 18 sa_15 + 30 sa_16 >= 0.625
 con_beta_pw_Mdkc[4,C2,P1,CPU1]: 9 sa_8 >= 0.625
 con_beta_ps_t0dkc[1,0,C1,P1,CPU1]: 14 sa_13 + 30 sa_32 >= 5
 con_beta_ps_t0dkc[1,0,C2,P1,CPU1]: >= 0
 con_beta_ps_t0dkc[2,0,C1,P1,CPU1]: 10 sa_18 + 10 sa_30 + 10 sa_31 >= 2.5
 con_beta_ps_t0dkc[2,0,C2,P1,CPU1]: >= 0
 con_beta_ps_t0dkc[3,0,C1,P1,CPU1]: 18 sa_17 >= 1.25
 con_beta_ps_t0dkc[3,0,C2,P1,CPU1]: >= 0
 con_beta_ps_t1TLdkc[1,1,C1,P1,CPU1]: - 9.5 sa_18 + 20.5 sa_30 - 9.5 sa_31
   >= 2.5
 con_beta_ps_t1TLdkc[1,1,C2,P1,CPU1]: >= 0
 con_beta_ps_t1TLdkc[2,1,C1,P1,CPU1]: 10 sa_9 + 10 sa_11 + 10 sa_19
   + 10 sa_20 >= 1.25
 con_beta_ps_t1TLdkc[2,1,C2,P1,CPU1]: >= 0
 con_beta_ps_t1TLdkc[3,1,C1,P1,CPU1]: 14 sa_22 + 30 sa_24 >= 0.625
 con_beta_ps_t1TLdkc[3,1,C2,P1,CPU1]: >= 0
 con_beta_ps_tTLMdkc[1,2,C1,P1,CPU1]: - 8.55 sa_9 - 8.55 sa_11 - 8.55 sa_19
   - 8.55 sa_20 + 30 sa_31 >= 1.25
 con_beta_ps_tTLMdkc[1,2,C2,P1,CPU1]: - 0.95 sa_9 - 0.95 sa_11 + 9 sa_12
   - 0.95 sa_19 - 0.95 sa_20 + 2 sa_26 >= 0
 con_beta_ps_tTLMdkc[1,3,C1,P1,CPU1]: - 8.55 sa_4 - 8.55 sa_5 - 8.55 sa_26
   - 8.55 sa_29 + 30 sa_33 >= 0.625
 con_beta_ps_tTLMdkc[1,3,C2,P1,CPU1]: - 0.95 sa_4 + 7.05 sa_5 + 9 sa_6
   - 0.95 sa_26 - 0.95 sa_29 >= 0.625
 con_beta_ps_tTLMdkc[2,2,C1,P1,CPU1]: 10 sa_4 + 10 sa_5 + 10 sa_26
   + 10 sa_29 >= 0.625
 con_beta_ps_tTLMdkc[2,2,C2,P1,CPU1]: >= 0
 con_beta_ps_tTLMdkc[2,3,C1,P1,CPU1]: 10 sa_2 >= 0.3125
 con_beta_ps_tTLMdkc[2,3,C2,P1,CPU1]: 7 sa_10 >= 0.3125
 con_beta_ps_tTLMdkc[3,2,C1,P1,CPU1]: 30 sa_4 >= 0.3125
 con_beta_ps_tTLMdkc[3,2,C2,P1,CPU1]: >= 0
 con_beta_ps_tTLMdkc[3,3,C1,P1,CPU1]: 30 sa_3 >= 0.15625
 con_beta_ps_tTLMdkc[3,3,C2,P1,CPU1]: 2 sa_13 + 10 sa_26 >= 0.15625
 con_beta_ps_tMdkc[1,4,C1,P1,CPU1]: - 8.55 sa_2 - 8.55 sa_3 - 8.55 sa_21
   + 30 sa_29 >= 0.3125
 con_beta_ps_tMdkc[1,4,C2,P1,CPU1]: - 0.95 sa_2 - 0.95 sa_3 + 10 sa_5
   - 6.65 sa_10 - 6.65 sa_12 + 10 sa_13 - 6.65 sa_14 - 0.95 sa_21
   >= 0.3125
 con_beta_ps_tMdkc[2,4,C1,P1,CPU1]: 10 sa_3 + 10 sa_21 >= 0.15625
 con_beta_ps_tMdkc[2,4,C2,P1,CPU1]: 7 sa_12 + 7 sa_14 >= 0.15625
 con_beta_ps_tMdkc[3,4,C1,P1,CPU1]: 30 sa_25 + 14 sa_26 >= 0.078125
 con_beta_ps_tMdkc[3,4,C2,P1,CPU1]: 2 sa_22 >= 0.078125
 con_beta_ps_Tmdkc[4,0,C1,P1,CPU1]: 18 sa_12 + 30 sa_14 + 30 sa_28
   + 30 sa_35 + 30 sa_36 + 30 sa_37 + 30 sa_38 + 30 sa_39 + 30 sa_40
   + 30 sa_41 + 30 sa_42 + 30 sa_43 + 30 sa_44 + 30 sa_45 + 30 sa_46
   + 30 sa_47 + 30 sa_48 + 30 sa_49 + 30 sa_50 + 30 sa_51 + 30 sa_52
   + 30 sa_53 + 30 sa_54 + 30 sa_55 + 30 sa_56 + 30 sa_57 + 30 sa_58
   + 30 sa_59 + 30 sa_60 + 30 sa_61 + 30 sa_62 + 30 sa_63 + 30 sa_64
   + 30 sa_65 + 30 sa_66 + 30 sa_67 + 30 sa_68 + 30 sa_69 + 30 sa_70
   + 30 sa_71 + 30 sa_72 + 30 sa_73 + 30 sa_74 + 30 sa_75 + 30 sa_76
   + 30 sa_77 + 30 sa_78 + 30 sa_79 + 30 sa_80 + 30 sa_81 + 30 sa_82
   + 30 sa_83 + 30 sa_84 + 30 sa_85 + 30 sa_86 + 30 sa_87 + 30 sa_88
   + 30 sa_89 + 30 sa_90 + 30 sa_91 + 30 sa_92 + 30 sa_93 + 30 sa_94
   + 30 sa_95 + 30 sa_96 + 30 sa_97 + 30 sa_98 + 30 sa_99 + 30 sa_100
   + 30 sa_101 + 30 sa_102 + 30 sa_103 + 30 sa_104 + 30 sa_105 + 30 sa_106
   + 30 sa_107 + 30 sa_108 + 30 sa_109 + 30 sa_110 + 30 sa_111 + 30 sa_112
   + 30 sa_113 + 30 sa_114 + 30 sa_115 + 30 sa_116 + 30 sa_117 + 30 sa_118
   + 30 sa_119 + 30 sa_120 + 30 sa_121 + 30 sa_122 + 30 sa_123 + 30 sa_124
   + 30 sa_125 + 30 sa_126 + 30 sa_127 + 30 sa_128 + 30 sa_129 + 30 sa_130
   + 30 sa_131 + 30 sa_132 + 30 sa_133 + 30 sa_134 + 30 sa_135 + 30 sa_136
   >= 0.625
 con_beta_ps_Tmdkc[4,0,C2,P1,CPU1]: >= 0
 con_beta_ps_Tmdkc[4,1,C1,P1,CPU1]: 30 sa_23 >= 0.3125
 con_beta_ps_Tmdkc[4,1,C2,P1,CPU1]: >= 0
 con_beta_ps_Tmdkc[4,2,C1,P1,CPU1]: 30 sa_0 >= 0.15625
 con_beta_ps_Tmdkc[4,2,C2,P1,CPU1]: >= 0
 con_beta_ps_Tmdkc[4,3,C1,P1,CPU1]: 30 sa_20 + 18 sa_21 >= 0.078125
 con_beta_ps_Tmdkc[4,3,C2,P1,CPU1]: 9 sa_15 >= 0.078125
 con_beta_ps_Tmdkc[4,4,C1,P1,CPU1]: 18 sa_6 >= 0.0390625
 con_beta_ps_Tmdkc[4,4,C2,P1,CPU1]: 9 sa_9 >= 0.0390625
Bounds
End
